experiment/data/lkh-res/Vrp-Set-X-n110/Vrp-Set-X-n110-lkh/0.lkh1.vrp
NAME : 0
COMMENT : CVRP Instance
TYPE : CVRP
DIMENSION : 110
EDGE_WEIGHT_TYPE : EUC_2D
CAPACITY : 66
NODE_COORD_SECTION
1	50000	50000
2	74000	44200
3	26100	71000
4	57800	52200
5	48200	91400
6	62800	64400
7	55100	65100
8	82800	5400
9	54100	27000
10	45000	100000
11	52100	12700
12	73800	80900
13	32300	28900
14	80300	21400
15	55600	48800
16	75800	93700
17	87500	32600
18	11300	50900
19	49100	72600
20	41500	35500
21	94600	63200
22	13600	12000
23	11700	97100
24	81700	24600
25	49100	84500
26	45400	80100
27	67600	99500
28	14500	55700
29	16600	49400
30	97700	31800
31	36300	71100
32	16400	50100
33	83300	50100
34	44400	95800
35	82800	67200
36	71400	5700
37	5100	67600
38	92200	1600
39	67300	57100
40	21100	47100
41	59000	22000
42	30500	31100
43	95300	74500
44	15400	75300
45	91800	22700
46	81900	67100
47	67500	66700
48	61700	17600
49	70600	17900
50	51200	44300
51	30200	45300
52	75300	78600
53	33100	45000
54	76500	99000
55	24900	36000
56	29200	88700
57	37100	80400
58	78600	18600
59	38200	28400
60	4400	55200
61	10700	89500
62	10800	92800
63	52300	26400
64	39700	12000
65	2500	76900
66	9800	62300
67	94600	97800
68	81500	69600
69	31400	36100
70	44700	69500
71	87800	24300
72	34100	64800
73	36300	0
74	67500	8300
75	99800	52000
76	9800	11100
77	26700	90200
78	62800	74600
79	94000	40900
80	78600	48800
81	32300	67400
82	98600	15100
83	79000	15000
84	18000	94400
85	53300	81600
86	75000	78900
87	58900	12500
88	64000	91100
89	9900	21600
90	75400	65900
91	82800	35700
92	59700	58700
93	92900	65500
94	15900	78100
95	95500	600
96	6300	43500
97	13000	30200
98	95400	68700
99	86600	87900
100	13100	68600
101	51900	22000
102	45400	92800
103	41500	91600
104	46800	83300
105	10900	85900
106	80600	56800
107	90700	70300
108	82100	13500
109	62200	56100
110	48200	68900
DEMAND_SECTION
1	0
2	8
3	10
4	8
5	5
6	10
7	5
8	9
9	10
10	6
11	5
12	10
13	5
14	9
15	10
16	7
17	9
18	7
19	8
20	5
21	8
22	10
23	6
24	8
25	7
26	6
27	7
28	5
29	10
30	10
31	5
32	7
33	5
34	10
35	6
36	7
37	9
38	7
39	7
40	6
41	7
42	10
43	8
44	10
45	6
46	10
47	8
48	6
49	10
50	8
51	10
52	10
53	6
54	5
55	5
56	10
57	5
58	10
59	8
60	8
61	5
62	6
63	7
64	8
65	9
66	10
67	8
68	5
69	6
70	10
71	8
72	5
73	10
74	9
75	7
76	6
77	7
78	7
79	6
80	9
81	6
82	10
83	9
84	10
85	5
86	5
87	7
88	8
89	10
90	10
91	10
92	8
93	9
94	6
95	6
96	5
97	6
98	8
99	5
100	9
101	5
102	5
103	6
104	6
105	5
106	5
107	7
108	7
109	9
110	9
DEPOT_SECTION
1
-1
EOF
