experiment/data/lkh-res/Vrp-Set-X-n110/Vrp-Set-X-n110-lkh/0.lkh1.tour
NAME : 0.1505501.tour
COMMENT : Length = 1505501
COMMENT : Found by LKH-3 [Keld Helsgaun] Tue Apr  9 03:09:03 2024
TYPE : TOUR
DIMENSION : 122
TOUR_SECTION
1
52
86
12
99
67
16
54
27
88
116
53
51
69
42
13
59
20
50
111
78
85
25
5
102
34
10
103
104
26
117
55
97
89
76
22
73
64
63
115
28
66
60
96
18
32
29
40
112
100
37
65
44
3
81
72
121
9
101
11
87
74
36
49
48
41
119
6
47
90
68
35
46
39
109
114
14
71
45
30
79
17
91
2
118
24
82
95
38
8
108
83
58
113
106
107
43
98
93
21
75
33
80
122
15
4
92
7
19
110
70
120
31
57
56
77
84
23
62
61
105
94
-1
EOF
